problem_generation/data/GISP/train/er_n=64_m=1197_p=0.60_SET2_setparam=100.00_alpha=0.50_295.lp
maximize
OBJ:100x0 + 100x1 + 100x2 + 100x3 + 100x4 + 100x5 + 100x6 + 100x7 + 100x8 + 100x9 + 100x10 + 100x11 + 100x12 + 100x13 + 100x14 + 100x15 + 100x16 + 100x17 + 100x18 + 100x19 + 100x20 + 100x21 + 100x22 + 100x23 + 100x24 + 100x25 + 100x26 + 100x27 + 100x28 + 100x29 + 100x30 + 100x31 + 100x32 + 100x33 + 100x34 + 100x35 + 100x36 + 100x37 + 100x38 + 100x39 + 100x40 + 100x41 + 100x42 + 100x43 + 100x44 + 100x45 + 100x46 + 100x47 + 100x48 + 100x49 + 100x50 + 100x51 + 100x52 + 100x53 + 100x54 + 100x55 + 100x56 + 100x57 + 100x58 + 100x59 + 100x60 + 100x61 + 100x62 + 100x63 - y7_17 - y36_53 - y18_26 - y26_39 - y17_58 - y9_63 - y40_41 - y21_37 - y11_14 - y40_50 - y21_46 - y0_23 - y29_59 - y10_27 - y33_38 - y2_32 - y10_45 - y3_6 - y44_56 - y25_52 - y14_24 - y43_60 - y14_33 - y22_46 - y14_51 - y7_12 - y36_48 - y17_44 - y7_21 - y36_57 - y17_53 - y9_49 - y5_60 - y29_36 - y21_32 - y6_43 - y21_41 - y29_54 - y40_54 - y6_61 - y25_38 - y10_49 - y10_58 - y22_23 - y14_19 - y32_55 - y35_60 - y3_37 - y14_37 - y7_16 - y28_48 - y9_44 - y5_55 - y6_38 - y29_49 - y2_13 - y10_35 - y25_33 - y32_41 - y51_54 - y3_14 - y24_46 - y35_46 - y3_23 - y14_23 - y13_55 - y14_32 - y16_51 - y1_62 - y16_60 - y17_25 - y36_38 - y17_34 - y36_47 - y17_43 - y28_43 - y36_56 - y17_52 - y5_59 - y9_57 - y29_44 - y6_51 - y10_12 - y2_8 - y10_21 - y39_57 - y2_17 - y54_55 - y2_26 - y20_62 - y10_39 - y31_62 - y13_32 - y3_9 - y43_45 - y51_58 - y13_41 - y35_41 - y3_18 - y14_18 - y43_54 - y35_50 - y43_63 - y16_46 - y24_59 - y16_55 - y17_20 - y5_27 - y28_29 - y36_42 - y9_34 - y9_52 - y50_53 - y6_28 - y6_46 - y2_12 - y20_48 - y12_44 - y12_53 - y23_53 - y24_27 - y4_58 - y51_53 - y13_36 - y35_36 - y1_43 - y32_58 - y43_58 - y1_52 - y13_54 - y35_54 - y16_50 - y24_63 - y35_63 - y36_37 - y5_31 - y17_33 - y28_33 - y6_32 - y42_53 - y20_34 - y39_47 - y2_7 - y20_43 - y31_43 - y12_39 - y31_52 - y31_61 - y12_57 - y4_53 - y24_31 - y32_44 - y43_44 - y43_53 - y24_49 - y35_49 - y16_54 - y9_15 - y49_51 - y17_28 - y38_60 - y49_60 - y17_37 - y5_44 - y27_50 - y30_46 - y42_48 - y30_55 - y42_57 - y0_60 - y23_25 - y12_43 - y23_43 - y31_56 - y23_52 - y1_15 - y13_17 - y4_48 - y12_61 - y23_61 - y24_35 - y13_44 - y24_44 - y35_44 - y1_51 - y46_50 - y5_21 - y46_59 - y8_32 - y30_41 - y11_37 - y0_46 - y11_46 - y19_59 - y42_61 - y11_55 - y39_46 - y12_38 - y31_51 - y4_34 - y12_47 - y23_56 - y1_28 - y13_30 - y24_30 - y16_26 - y56_62 - y1_37 - y15_48 - y26_57 - y18_53 - y18_62 - y8_36 - y8_45 - y8_54 - y19_54 - y42_56 - y0_50 - y4_11 - y52_60 - y20_37 - y4_20 - y31_37 - y12_33 - y4_29 - y23_42 - y4_38 - y34_39 - y4_47 - y45_48 - y37_44 - y1_32 - y37_53 - y15_34 - y26_52 - y18_48 - y8_13 - y19_22 - y19_31 - y30_31 - y11_27 - y0_36 - y8_49 - y19_49 - y30_58 - y4_15 - y4_24 - y33_60 - y23_37 - y4_33 - y2_63 - y34_43 - y37_39 - y22_59 - y34_61 - y56_61 - y3_55 - y15_20 - y15_29 - y26_29 - y5_6 - y15_38 - y18_34 - y26_47 - y15_56 - y0_4 - y7_52 - y27_30 - y11_13 - y7_61 - y48_62 - y0_31 - y8_44 - y19_44 - y21_63 - y4_19 - y33_55 - y25_51 - y1_4 - y14_41 - y45_56 - y3_50 - y22_63 - y14_59 - y15_24 - y26_42 - y18_38 - y26_51 - y8_12 - y7_56 - y48_57 - y0_17 - y11_17 - y29_53 - y6_60 - y41_54 - y4_14 - y10_57 - y3_27 - y14_27 - y22_40 - y45_51 - y14_45 - y22_58 - y3_54 - y14_54 - y7_15 - y3_63 - y15_28 - y18_24 - y15_37 - y26_37 - y7_42 - y29_39 - y11_12 - y40_48 - y48_61 - y21_44 - y0_21 - y6_55 - y29_57 - y21_53 - y33_36 - y2_57 - y3_22 - y14_22 - y25_59 - y14_31 - y36_46 - y15_23 - y7_19 - y18_19 - y15_32 - y28_51 - y7_28 - y18_28 - y18_37 - y29_34 - y8_11 - y29_43 - y6_50 - y11_16 - y41_44 - y10_38 - y33_49 - y44_49 - y10_56 - y2_52 - y3_17 - y3_26 - y14_26 - y43_62 - y14_35 - y14_44 - y16_63 - y15_18 - y7_14 - y47_50 - y55_63 - y17_46 - y28_46 - y18_23 - y47_59 - y59_61 - y17_55 - y6_27 - y21_34 - y10_15 - y6_63 - y21_61 - y2_20 - y54_58 - y10_42 - y2_38 - y25_40 - y10_51 - y43_48 - y3_21 - y32_57 - y28_32 - y7_9 - y28_41 - y9_37 - y5_48 - y5_57 - y58_60 - y9_55 - y29_33 - y40_42 - y2_15 - y20_60 - y25_26 - y10_37 - y2_33 - y3_7 - y24_39 - y3_16 - y14_16 - y32_52 - y1_55 - y16_62 - y36_40 - y36_49 - y9_32 - y47_49 - y5_43 - y36_58 - y5_52 - y10_14 - y39_50 - y39_59 - y2_19 - y31_55 - y10_32 - y12_51 - y12_60 - y23_60 - y32_38 - y13_34 - y32_47 - y51_60 - y24_43 - y35_43 - y1_50 - y13_52 - y24_52 - y1_59 - y13_61 - y9_27 - y5_47 - y42_51 - y21_28 - y42_60 - y4_42 - y23_55 - y1_27 - y13_29 - y32_42 - y16_25 - y1_36 - y35_38 - y1_45 - y13_47 - y24_47 - y16_43 - y16_52 - y9_13 - y16_61 - y17_35 - y9_31 - y42_46 - y30_53 - y42_55 - y0_49 - y19_62 - y20_27 - y0_58 - y11_58 - y31_36 - y23_32 - y20_45 - y31_45 - y2_18 - y12_50 - y31_63 - y13_24 - y4_55 - y13_33 - y24_33 - y16_29 - y1_40 - y16_38 - y35_51 - y1_58 - y17_21 - y38_53 - y17_30 - y15_60 - y49_62 - y9_35 - y8_39 - y19_39 - y50_54 - y19_48 - y0_44 - y11_44 - y8_57 - y30_57 - y42_59 - y0_53 - y11_53 - y12_18 - y20_31 - y0_62 - y12_27 - y31_40 - y4_23 - y12_36 - y20_49 - y4_32 - y13_19 - y53_55 - y23_63 - y16_24 - y1_35 - y16_42 - y5_14 - y5_23 - y57_61 - y15_55 - y7_51 - y18_60 - y8_25 - y27_38 - y8_34 - y19_34 - y30_34 - y8_43 - y19_43 - y27_56 - y0_39 - y19_52 - y30_52 - y20_26 - y0_57 - y11_57 - y20_35 - y12_31 - y23_31 - y20_44 - y12_40 - y23_40 - y12_49 - y53_59 - y1_30 - y16_28 - y22_62 - y14_58 - y5_9 - y46_47 - y38_43 - y9_16 - y26_50 - y49_61 - y8_20 - y0_25 - y11_25 - y0_43 - y30_56 - y20_21 - y41_53 - y23_26 - y4_22 - y23_35 - y25_63 - y34_41 - y1_16 - y53_54 - y34_50 - y45_59 - y56_59 - y26_27 - y15_36 - y7_32 - y18_32 - y15_45 - y26_54 - y38_56 - y18_50 - y15_63 - y27_28 - y0_11 - y0_20 - y11_20 - y8_33 - y8_42 - y19_42 - y30_42 - y11_38 - y19_51 - y60_61 - y52_57 - y12_30 - y4_26 - y44_62 - y22_34 - y1_20 - y45_54 - y14_48 - y34_63 - y14_57 - y7_27 - y15_49 - y26_49 - y7_45 - y8_10 - y26_58 - y48_55 - y11_24 - y40_60 - y0_33 - y11_42 - y33_39 - y12_16 - y41_52 - y10_46 - y2_51 - y22_38 - y34_40 - y45_49 - y14_52 - y3_61 - y59_60 - y15_35 - y26_44 - y7_40 - y18_40 - y8_14 - y48_50 - y48_59 - y6_53 - y30_32 - y11_28 - y4_7 - y33_43 - y52_56 - y10_50 - y33_52 - y2_46 - y25_48 - y33_61 - y44_61 - y2_55 - y22_33 - y3_29 - y14_38 - y22_51
 Subject to
C1: x0+x2 <=1 
C2: x0+x4-y0_4 <=1 
C3: x0+x7 <=1 
C4: x0+x9 <=1 
C5: x0+x11-y0_11 <=1 
C6: x0+x14 <=1 
C7: x0+x17-y0_17 <=1 
C8: x0+x18 <=1 
C9: x0+x19 <=1 
C10: x0+x20-y0_20 <=1 
C11: x0+x21-y0_21 <=1 
C12: x0+x23-y0_23 <=1 
C13: x0+x25-y0_25 <=1 
C14: x0+x31-y0_31 <=1 
C15: x0+x32 <=1 
C16: x0+x33-y0_33 <=1 
C17: x0+x34 <=1 
C18: x0+x35 <=1 
C19: x0+x36-y0_36 <=1 
C20: x0+x38 <=1 
C21: x0+x39-y0_39 <=1 
C22: x0+x41 <=1 
C23: x0+x42 <=1 
C24: x0+x43-y0_43 <=1 
C25: x0+x44-y0_44 <=1 
C26: x0+x45 <=1 
C27: x0+x46-y0_46 <=1 
C28: x0+x49-y0_49 <=1 
C29: x0+x50-y0_50 <=1 
C30: x0+x51 <=1 
C31: x0+x53-y0_53 <=1 
C32: x0+x57-y0_57 <=1 
C33: x0+x58-y0_58 <=1 
C34: x0+x60-y0_60 <=1 
C35: x0+x62-y0_62 <=1 
C36: x1+x4-y1_4 <=1 
C37: x1+x5 <=1 
C38: x1+x8 <=1 
C39: x1+x11 <=1 
C40: x1+x14 <=1 
C41: x1+x15-y1_15 <=1 
C42: x1+x16-y1_16 <=1 
C43: x1+x18 <=1 
C44: x1+x20-y1_20 <=1 
C45: x1+x22 <=1 
C46: x1+x25 <=1 
C47: x1+x26 <=1 
C48: x1+x27-y1_27 <=1 
C49: x1+x28-y1_28 <=1 
C50: x1+x30-y1_30 <=1 
C51: x1+x31 <=1 
C52: x1+x32-y1_32 <=1 
C53: x1+x35-y1_35 <=1 
C54: x1+x36-y1_36 <=1 
C55: x1+x37-y1_37 <=1 
C56: x1+x38 <=1 
C57: x1+x40-y1_40 <=1 
C58: x1+x42 <=1 
C59: x1+x43-y1_43 <=1 
C60: x1+x44 <=1 
C61: x1+x45-y1_45 <=1 
C62: x1+x46 <=1 
C63: x1+x47 <=1 
C64: x1+x50-y1_50 <=1 
C65: x1+x51-y1_51 <=1 
C66: x1+x52-y1_52 <=1 
C67: x1+x55-y1_55 <=1 
C68: x1+x58-y1_58 <=1 
C69: x1+x59-y1_59 <=1 
C70: x1+x60 <=1 
C71: x1+x62-y1_62 <=1 
C72: x1+x63 <=1 
C73: x2+x3 <=1 
C74: x2+x7-y2_7 <=1 
C75: x2+x8-y2_8 <=1 
C76: x2+x10 <=1 
C77: x2+x12-y2_12 <=1 
C78: x2+x13-y2_13 <=1 
C79: x2+x15-y2_15 <=1 
C80: x2+x17-y2_17 <=1 
C81: x2+x18-y2_18 <=1 
C82: x2+x19-y2_19 <=1 
C83: x2+x20-y2_20 <=1 
C84: x2+x21 <=1 
C85: x2+x22 <=1 
C86: x2+x26-y2_26 <=1 
C87: x2+x28 <=1 
C88: x2+x29 <=1 
C89: x2+x31 <=1 
C90: x2+x32-y2_32 <=1 
C91: x2+x33-y2_33 <=1 
C92: x2+x35 <=1 
C93: x2+x38-y2_38 <=1 
C94: x2+x43 <=1 
C95: x2+x44 <=1 
C96: x2+x45 <=1 
C97: x2+x46-y2_46 <=1 
C98: x2+x47 <=1 
C99: x2+x49 <=1 
C100: x2+x50 <=1 
C101: x2+x51-y2_51 <=1 
C102: x2+x52-y2_52 <=1 
C103: x2+x53 <=1 
C104: x2+x55-y2_55 <=1 
C105: x2+x57-y2_57 <=1 
C106: x2+x58 <=1 
C107: x2+x60 <=1 
C108: x2+x63-y2_63 <=1 
C109: x3+x6-y3_6 <=1 
C110: x3+x7-y3_7 <=1 
C111: x3+x8 <=1 
C112: x3+x9-y3_9 <=1 
C113: x3+x14-y3_14 <=1 
C114: x3+x16-y3_16 <=1 
C115: x3+x17-y3_17 <=1 
C116: x3+x18-y3_18 <=1 
C117: x3+x21-y3_21 <=1 
C118: x3+x22-y3_22 <=1 
C119: x3+x23-y3_23 <=1 
C120: x3+x24 <=1 
C121: x3+x25 <=1 
C122: x3+x26-y3_26 <=1 
C123: x3+x27-y3_27 <=1 
C124: x3+x29-y3_29 <=1 
C125: x3+x30 <=1 
C126: x3+x32 <=1 
C127: x3+x35 <=1 
C128: x3+x37-y3_37 <=1 
C129: x3+x43 <=1 
C130: x3+x47 <=1 
C131: x3+x50-y3_50 <=1 
C132: x3+x51 <=1 
C133: x3+x52 <=1 
C134: x3+x54-y3_54 <=1 
C135: x3+x55-y3_55 <=1 
C136: x3+x59 <=1 
C137: x3+x60 <=1 
C138: x3+x61-y3_61 <=1 
C139: x3+x63-y3_63 <=1 
C140: x4+x7-y4_7 <=1 
C141: x4+x10 <=1 
C142: x4+x11-y4_11 <=1 
C143: x4+x14-y4_14 <=1 
C144: x4+x15-y4_15 <=1 
C145: x4+x18 <=1 
C146: x4+x19-y4_19 <=1 
C147: x4+x20-y4_20 <=1 
C148: x4+x22-y4_22 <=1 
C149: x4+x23-y4_23 <=1 
C150: x4+x24-y4_24 <=1 
C151: x4+x25 <=1 
C152: x4+x26-y4_26 <=1 
C153: x4+x27 <=1 
C154: x4+x28 <=1 
C155: x4+x29-y4_29 <=1 
C156: x4+x32-y4_32 <=1 
C157: x4+x33-y4_33 <=1 
C158: x4+x34-y4_34 <=1 
C159: x4+x35 <=1 
C160: x4+x38-y4_38 <=1 
C161: x4+x42-y4_42 <=1 
C162: x4+x47-y4_47 <=1 
C163: x4+x48-y4_48 <=1 
C164: x4+x50 <=1 
C165: x4+x51 <=1 
C166: x4+x53-y4_53 <=1 
C167: x4+x55-y4_55 <=1 
C168: x4+x56 <=1 
C169: x4+x58-y4_58 <=1 
C170: x4+x59 <=1 
C171: x4+x62 <=1 
C172: x4+x63 <=1 
C173: x5+x6-y5_6 <=1 
C174: x5+x9-y5_9 <=1 
C175: x5+x10 <=1 
C176: x5+x12 <=1 
C177: x5+x13 <=1 
C178: x5+x14-y5_14 <=1 
C179: x5+x17 <=1 
C180: x5+x18 <=1 
C181: x5+x20 <=1 
C182: x5+x21-y5_21 <=1 
C183: x5+x22 <=1 
C184: x5+x23-y5_23 <=1 
C185: x5+x25 <=1 
C186: x5+x26 <=1 
C187: x5+x27-y5_27 <=1 
C188: x5+x28 <=1 
C189: x5+x31-y5_31 <=1 
C190: x5+x33 <=1 
C191: x5+x35 <=1 
C192: x5+x36 <=1 
C193: x5+x39 <=1 
C194: x5+x41 <=1 
C195: x5+x43-y5_43 <=1 
C196: x5+x44-y5_44 <=1 
C197: x5+x47-y5_47 <=1 
C198: x5+x48-y5_48 <=1 
C199: x5+x49 <=1 
C200: x5+x52-y5_52 <=1 
C201: x5+x54 <=1 
C202: x5+x55-y5_55 <=1 
C203: x5+x56 <=1 
C204: x5+x57-y5_57 <=1 
C205: x5+x58 <=1 
C206: x5+x59-y5_59 <=1 
C207: x5+x60-y5_60 <=1 
C208: x5+x61 <=1 
C209: x6+x7 <=1 
C210: x6+x8 <=1 
C211: x6+x13 <=1 
C212: x6+x14 <=1 
C213: x6+x19 <=1 
C214: x6+x23 <=1 
C215: x6+x27-y6_27 <=1 
C216: x6+x28-y6_28 <=1 
C217: x6+x29 <=1 
C218: x6+x31 <=1 
C219: x6+x32-y6_32 <=1 
C220: x6+x38-y6_38 <=1 
C221: x6+x40 <=1 
C222: x6+x43-y6_43 <=1 
C223: x6+x46-y6_46 <=1 
C224: x6+x48 <=1 
C225: x6+x49 <=1 
C226: x6+x50-y6_50 <=1 
C227: x6+x51-y6_51 <=1 
C228: x6+x53-y6_53 <=1 
C229: x6+x55-y6_55 <=1 
C230: x6+x56 <=1 
C231: x6+x58 <=1 
C232: x6+x59 <=1 
C233: x6+x60-y6_60 <=1 
C234: x6+x61-y6_61 <=1 
C235: x6+x62 <=1 
C236: x6+x63-y6_63 <=1 
C237: x7+x8 <=1 
C238: x7+x9-y7_9 <=1 
C239: x7+x12-y7_12 <=1 
C240: x7+x13 <=1 
C241: x7+x14-y7_14 <=1 
C242: x7+x15-y7_15 <=1 
C243: x7+x16-y7_16 <=1 
C244: x7+x17-y7_17 <=1 
C245: x7+x19-y7_19 <=1 
C246: x7+x21-y7_21 <=1 
C247: x7+x22 <=1 
C248: x7+x23 <=1 
C249: x7+x27-y7_27 <=1 
C250: x7+x28-y7_28 <=1 
C251: x7+x29 <=1 
C252: x7+x32-y7_32 <=1 
C253: x7+x33 <=1 
C254: x7+x37 <=1 
C255: x7+x38 <=1 
C256: x7+x40-y7_40 <=1 
C257: x7+x41 <=1 
C258: x7+x42-y7_42 <=1 
C259: x7+x43 <=1 
C260: x7+x44 <=1 
C261: x7+x45-y7_45 <=1 
C262: x7+x46 <=1 
C263: x7+x49 <=1 
C264: x7+x50 <=1 
C265: x7+x51-y7_51 <=1 
C266: x7+x52-y7_52 <=1 
C267: x7+x53 <=1 
C268: x7+x55 <=1 
C269: x7+x56-y7_56 <=1 
C270: x7+x57 <=1 
C271: x7+x59 <=1 
C272: x7+x61-y7_61 <=1 
C273: x8+x10-y8_10 <=1 
C274: x8+x11-y8_11 <=1 
C275: x8+x12-y8_12 <=1 
C276: x8+x13-y8_13 <=1 
C277: x8+x14-y8_14 <=1 
C278: x8+x15 <=1 
C279: x8+x16 <=1 
C280: x8+x17 <=1 
C281: x8+x20-y8_20 <=1 
C282: x8+x22 <=1 
C283: x8+x23 <=1 
C284: x8+x24 <=1 
C285: x8+x25-y8_25 <=1 
C286: x8+x27 <=1 
C287: x8+x30 <=1 
C288: x8+x31 <=1 
C289: x8+x32-y8_32 <=1 
C290: x8+x33-y8_33 <=1 
C291: x8+x34-y8_34 <=1 
C292: x8+x36-y8_36 <=1 
C293: x8+x37 <=1 
C294: x8+x39-y8_39 <=1 
C295: x8+x40 <=1 
C296: x8+x41 <=1 
C297: x8+x42-y8_42 <=1 
C298: x8+x43-y8_43 <=1 
C299: x8+x44-y8_44 <=1 
C300: x8+x45-y8_45 <=1 
C301: x8+x46 <=1 
C302: x8+x47 <=1 
C303: x8+x49-y8_49 <=1 
C304: x8+x50 <=1 
C305: x8+x54-y8_54 <=1 
C306: x8+x55 <=1 
C307: x8+x56 <=1 
C308: x8+x57-y8_57 <=1 
C309: x8+x58 <=1 
C310: x8+x61 <=1 
C311: x8+x63 <=1 
C312: x9+x11 <=1 
C313: x9+x13-y9_13 <=1 
C314: x9+x15-y9_15 <=1 
C315: x9+x16-y9_16 <=1 
C316: x9+x17 <=1 
C317: x9+x21 <=1 
C318: x9+x22 <=1 
C319: x9+x27-y9_27 <=1 
C320: x9+x30 <=1 
C321: x9+x31-y9_31 <=1 
C322: x9+x32-y9_32 <=1 
C323: x9+x33 <=1 
C324: x9+x34-y9_34 <=1 
C325: x9+x35-y9_35 <=1 
C326: x9+x36 <=1 
C327: x9+x37-y9_37 <=1 
C328: x9+x38 <=1 
C329: x9+x44-y9_44 <=1 
C330: x9+x46 <=1 
C331: x9+x49-y9_49 <=1 
C332: x9+x50 <=1 
C333: x9+x51 <=1 
C334: x9+x52-y9_52 <=1 
C335: x9+x55-y9_55 <=1 
C336: x9+x56 <=1 
C337: x9+x57-y9_57 <=1 
C338: x9+x59 <=1 
C339: x9+x60 <=1 
C340: x9+x61 <=1 
C341: x9+x63-y9_63 <=1 
C342: x10+x11 <=1 
C343: x10+x12-y10_12 <=1 
C344: x10+x13 <=1 
C345: x10+x14-y10_14 <=1 
C346: x10+x15-y10_15 <=1 
C347: x10+x17 <=1 
C348: x10+x18 <=1 
C349: x10+x21-y10_21 <=1 
C350: x10+x24 <=1 
C351: x10+x26 <=1 
C352: x10+x27-y10_27 <=1 
C353: x10+x28 <=1 
C354: x10+x32-y10_32 <=1 
C355: x10+x33 <=1 
C356: x10+x34 <=1 
C357: x10+x35-y10_35 <=1 
C358: x10+x37-y10_37 <=1 
C359: x10+x38-y10_38 <=1 
C360: x10+x39-y10_39 <=1 
C361: x10+x41 <=1 
C362: x10+x42-y10_42 <=1 
C363: x10+x45-y10_45 <=1 
C364: x10+x46-y10_46 <=1 
C365: x10+x47 <=1 
C366: x10+x49-y10_49 <=1 
C367: x10+x50-y10_50 <=1 
C368: x10+x51-y10_51 <=1 
C369: x10+x55 <=1 
C370: x10+x56-y10_56 <=1 
C371: x10+x57-y10_57 <=1 
C372: x10+x58-y10_58 <=1 
C373: x11+x12-y11_12 <=1 
C374: x11+x13-y11_13 <=1 
C375: x11+x14-y11_14 <=1 
C376: x11+x16-y11_16 <=1 
C377: x11+x17-y11_17 <=1 
C378: x11+x19 <=1 
C379: x11+x20-y11_20 <=1 
C380: x11+x23 <=1 
C381: x11+x24-y11_24 <=1 
C382: x11+x25-y11_25 <=1 
C383: x11+x27-y11_27 <=1 
C384: x11+x28-y11_28 <=1 
C385: x11+x29 <=1 
C386: x11+x31 <=1 
C387: x11+x32 <=1 
C388: x11+x37-y11_37 <=1 
C389: x11+x38-y11_38 <=1 
C390: x11+x39 <=1 
C391: x11+x40 <=1 
C392: x11+x42-y11_42 <=1 
C393: x11+x44-y11_44 <=1 
C394: x11+x46-y11_46 <=1 
C395: x11+x48 <=1 
C396: x11+x50 <=1 
C397: x11+x53-y11_53 <=1 
C398: x11+x54 <=1 
C399: x11+x55-y11_55 <=1 
C400: x11+x57-y11_57 <=1 
C401: x11+x58-y11_58 <=1 
C402: x11+x60 <=1 
C403: x11+x62 <=1 
C404: x12+x13 <=1 
C405: x12+x14 <=1 
C406: x12+x16-y12_16 <=1 
C407: x12+x18-y12_18 <=1 
C408: x12+x20 <=1 
C409: x12+x22 <=1 
C410: x12+x23 <=1 
C411: x12+x24 <=1 
C412: x12+x27-y12_27 <=1 
C413: x12+x28 <=1 
C414: x12+x29 <=1 
C415: x12+x30-y12_30 <=1 
C416: x12+x31-y12_31 <=1 
C417: x12+x33-y12_33 <=1 
C418: x12+x34 <=1 
C419: x12+x35 <=1 
C420: x12+x36-y12_36 <=1 
C421: x12+x37 <=1 
C422: x12+x38-y12_38 <=1 
C423: x12+x39-y12_39 <=1 
C424: x12+x40-y12_40 <=1 
C425: x12+x42 <=1 
C426: x12+x43-y12_43 <=1 
C427: x12+x44-y12_44 <=1 
C428: x12+x47-y12_47 <=1 
C429: x12+x48 <=1 
C430: x12+x49-y12_49 <=1 
C431: x12+x50-y12_50 <=1 
C432: x12+x51-y12_51 <=1 
C433: x12+x52 <=1 
C434: x12+x53-y12_53 <=1 
C435: x12+x57-y12_57 <=1 
C436: x12+x60-y12_60 <=1 
C437: x12+x61-y12_61 <=1 
C438: x13+x15 <=1 
C439: x13+x17-y13_17 <=1 
C440: x13+x19-y13_19 <=1 
C441: x13+x20 <=1 
C442: x13+x21 <=1 
C443: x13+x24-y13_24 <=1 
C444: x13+x29-y13_29 <=1 
C445: x13+x30-y13_30 <=1 
C446: x13+x32-y13_32 <=1 
C447: x13+x33-y13_33 <=1 
C448: x13+x34-y13_34 <=1 
C449: x13+x35 <=1 
C450: x13+x36-y13_36 <=1 
C451: x13+x38 <=1 
C452: x13+x40 <=1 
C453: x13+x41-y13_41 <=1 
C454: x13+x42 <=1 
C455: x13+x43 <=1 
C456: x13+x44-y13_44 <=1 
C457: x13+x45 <=1 
C458: x13+x46 <=1 
C459: x13+x47-y13_47 <=1 
C460: x13+x52-y13_52 <=1 
C461: x13+x53 <=1 
C462: x13+x54-y13_54 <=1 
C463: x13+x55-y13_55 <=1 
C464: x13+x60 <=1 
C465: x13+x61-y13_61 <=1 
C466: x13+x62 <=1 
C467: x13+x63 <=1 
C468: x14+x16-y14_16 <=1 
C469: x14+x18-y14_18 <=1 
C470: x14+x19-y14_19 <=1 
C471: x14+x22-y14_22 <=1 
C472: x14+x23-y14_23 <=1 
C473: x14+x24-y14_24 <=1 
C474: x14+x25 <=1 
C475: x14+x26-y14_26 <=1 
C476: x14+x27-y14_27 <=1 
C477: x14+x28 <=1 
C478: x14+x29 <=1 
C479: x14+x30 <=1 
C480: x14+x31-y14_31 <=1 
C481: x14+x32-y14_32 <=1 
C482: x14+x33-y14_33 <=1 
C483: x14+x35-y14_35 <=1 
C484: x14+x37-y14_37 <=1 
C485: x14+x38-y14_38 <=1 
C486: x14+x39 <=1 
C487: x14+x41-y14_41 <=1 
C488: x14+x42 <=1 
C489: x14+x44-y14_44 <=1 
C490: x14+x45-y14_45 <=1 
C491: x14+x47 <=1 
C492: x14+x48-y14_48 <=1 
C493: x14+x50 <=1 
C494: x14+x51-y14_51 <=1 
C495: x14+x52-y14_52 <=1 
C496: x14+x53 <=1 
C497: x14+x54-y14_54 <=1 
C498: x14+x56 <=1 
C499: x14+x57-y14_57 <=1 
C500: x14+x58-y14_58 <=1 
C501: x14+x59-y14_59 <=1 
C502: x15+x16 <=1 
C503: x15+x18-y15_18 <=1 
C504: x15+x20-y15_20 <=1 
C505: x15+x21 <=1 
C506: x15+x23-y15_23 <=1 
C507: x15+x24-y15_24 <=1 
C508: x15+x28-y15_28 <=1 
C509: x15+x29-y15_29 <=1 
C510: x15+x31 <=1 
C511: x15+x32-y15_32 <=1 
C512: x15+x34-y15_34 <=1 
C513: x15+x35-y15_35 <=1 
C514: x15+x36-y15_36 <=1 
C515: x15+x37-y15_37 <=1 
C516: x15+x38-y15_38 <=1 
C517: x15+x39 <=1 
C518: x15+x40 <=1 
C519: x15+x43 <=1 
C520: x15+x45-y15_45 <=1 
C521: x15+x46 <=1 
C522: x15+x48-y15_48 <=1 
C523: x15+x49-y15_49 <=1 
C524: x15+x51 <=1 
C525: x15+x52 <=1 
C526: x15+x53 <=1 
C527: x15+x54 <=1 
C528: x15+x55-y15_55 <=1 
C529: x15+x56-y15_56 <=1 
C530: x15+x57 <=1 
C531: x15+x60-y15_60 <=1 
C532: x15+x61 <=1 
C533: x15+x63-y15_63 <=1 
C534: x16+x18 <=1 
C535: x16+x21 <=1 
C536: x16+x24-y16_24 <=1 
C537: x16+x25-y16_25 <=1 
C538: x16+x26-y16_26 <=1 
C539: x16+x27 <=1 
C540: x16+x28-y16_28 <=1 
C541: x16+x29-y16_29 <=1 
C542: x16+x33 <=1 
C543: x16+x36 <=1 
C544: x16+x37 <=1 
C545: x16+x38-y16_38 <=1 
C546: x16+x42-y16_42 <=1 
C547: x16+x43-y16_43 <=1 
C548: x16+x46-y16_46 <=1 
C549: x16+x47 <=1 
C550: x16+x50-y16_50 <=1 
C551: x16+x51-y16_51 <=1 
C552: x16+x52-y16_52 <=1 
C553: x16+x54-y16_54 <=1 
C554: x16+x55-y16_55 <=1 
C555: x16+x56 <=1 
C556: x16+x57 <=1 
C557: x16+x58 <=1 
C558: x16+x59 <=1 
C559: x16+x60-y16_60 <=1 
C560: x16+x61-y16_61 <=1 
C561: x16+x62-y16_62 <=1 
C562: x16+x63-y16_63 <=1 
C563: x17+x19 <=1 
C564: x17+x20-y17_20 <=1 
C565: x17+x21-y17_21 <=1 
C566: x17+x22 <=1 
C567: x17+x23 <=1 
C568: x17+x25-y17_25 <=1 
C569: x17+x26 <=1 
C570: x17+x27 <=1 
C571: x17+x28-y17_28 <=1 
C572: x17+x30-y17_30 <=1 
C573: x17+x31 <=1 
C574: x17+x32 <=1 
C575: x17+x33-y17_33 <=1 
C576: x17+x34-y17_34 <=1 
C577: x17+x35-y17_35 <=1 
C578: x17+x36 <=1 
C579: x17+x37-y17_37 <=1 
C580: x17+x40 <=1 
C581: x17+x41 <=1 
C582: x17+x43-y17_43 <=1 
C583: x17+x44-y17_44 <=1 
C584: x17+x46-y17_46 <=1 
C585: x17+x47 <=1 
C586: x17+x51 <=1 
C587: x17+x52-y17_52 <=1 
C588: x17+x53-y17_53 <=1 
C589: x17+x54 <=1 
C590: x17+x55-y17_55 <=1 
C591: x17+x58-y17_58 <=1 
C592: x17+x60 <=1 
C593: x18+x19-y18_19 <=1 
C594: x18+x22 <=1 
C595: x18+x23-y18_23 <=1 
C596: x18+x24-y18_24 <=1 
C597: x18+x25 <=1 
C598: x18+x26-y18_26 <=1 
C599: x18+x27 <=1 
C600: x18+x28-y18_28 <=1 
C601: x18+x29 <=1 
C602: x18+x32-y18_32 <=1 
C603: x18+x33 <=1 
C604: x18+x34-y18_34 <=1 
C605: x18+x37-y18_37 <=1 
C606: x18+x38-y18_38 <=1 
C607: x18+x40-y18_40 <=1 
C608: x18+x42 <=1 
C609: x18+x43 <=1 
C610: x18+x47 <=1 
C611: x18+x48-y18_48 <=1 
C612: x18+x49 <=1 
C613: x18+x50-y18_50 <=1 
C614: x18+x53-y18_53 <=1 
C615: x18+x54 <=1 
C616: x18+x57 <=1 
C617: x18+x59 <=1 
C618: x18+x60-y18_60 <=1 
C619: x18+x62-y18_62 <=1 
C620: x18+x63 <=1 
C621: x19+x22-y19_22 <=1 
C622: x19+x23 <=1 
C623: x19+x24 <=1 
C624: x19+x29 <=1 
C625: x19+x31-y19_31 <=1 
C626: x19+x34-y19_34 <=1 
C627: x19+x35 <=1 
C628: x19+x37 <=1 
C629: x19+x39-y19_39 <=1 
C630: x19+x40 <=1 
C631: x19+x41 <=1 
C632: x19+x42-y19_42 <=1 
C633: x19+x43-y19_43 <=1 
C634: x19+x44-y19_44 <=1 
C635: x19+x45 <=1 
C636: x19+x47 <=1 
C637: x19+x48-y19_48 <=1 
C638: x19+x49-y19_49 <=1 
C639: x19+x51-y19_51 <=1 
C640: x19+x52-y19_52 <=1 
C641: x19+x54-y19_54 <=1 
C642: x19+x59-y19_59 <=1 
C643: x19+x60 <=1 
C644: x19+x62-y19_62 <=1 
C645: x19+x63 <=1 
C646: x20+x21-y20_21 <=1 
C647: x20+x23 <=1 
C648: x20+x25 <=1 
C649: x20+x26-y20_26 <=1 
C650: x20+x27-y20_27 <=1 
C651: x20+x29 <=1 
C652: x20+x31-y20_31 <=1 
C653: x20+x34-y20_34 <=1 
C654: x20+x35-y20_35 <=1 
C655: x20+x36 <=1 
C656: x20+x37-y20_37 <=1 
C657: x20+x39 <=1 
C658: x20+x40 <=1 
C659: x20+x43-y20_43 <=1 
C660: x20+x44-y20_44 <=1 
C661: x20+x45-y20_45 <=1 
C662: x20+x47 <=1 
C663: x20+x48-y20_48 <=1 
C664: x20+x49-y20_49 <=1 
C665: x20+x51 <=1 
C666: x20+x52 <=1 
C667: x20+x56 <=1 
C668: x20+x60-y20_60 <=1 
C669: x20+x62-y20_62 <=1 
C670: x20+x63 <=1 
C671: x21+x26 <=1 
C672: x21+x28-y21_28 <=1 
C673: x21+x29 <=1 
C674: x21+x32-y21_32 <=1 
C675: x21+x34-y21_34 <=1 
C676: x21+x36 <=1 
C677: x21+x37-y21_37 <=1 
C678: x21+x40 <=1 
C679: x21+x41-y21_41 <=1 
C680: x21+x43 <=1 
C681: x21+x44-y21_44 <=1 
C682: x21+x45 <=1 
C683: x21+x46-y21_46 <=1 
C684: x21+x49 <=1 
C685: x21+x50 <=1 
C686: x21+x51 <=1 
C687: x21+x52 <=1 
C688: x21+x53-y21_53 <=1 
C689: x21+x57 <=1 
C690: x21+x60 <=1 
C691: x21+x61-y21_61 <=1 
C692: x21+x63-y21_63 <=1 
C693: x22+x23-y22_23 <=1 
C694: x22+x25 <=1 
C695: x22+x26 <=1 
C696: x22+x27 <=1 
C697: x22+x31 <=1 
C698: x22+x32 <=1 
C699: x22+x33-y22_33 <=1 
C700: x22+x34-y22_34 <=1 
C701: x22+x36 <=1 
C702: x22+x38-y22_38 <=1 
C703: x22+x39 <=1 
C704: x22+x40-y22_40 <=1 
C705: x22+x44 <=1 
C706: x22+x46-y22_46 <=1 
C707: x22+x47 <=1 
C708: x22+x51-y22_51 <=1 
C709: x22+x52 <=1 
C710: x22+x53 <=1 
C711: x22+x54 <=1 
C712: x22+x55 <=1 
C713: x22+x58-y22_58 <=1 
C714: x22+x59-y22_59 <=1 
C715: x22+x61 <=1 
C716: x22+x62-y22_62 <=1 
C717: x22+x63-y22_63 <=1 
C718: x23+x25-y23_25 <=1 
C719: x23+x26-y23_26 <=1 
C720: x23+x29 <=1 
C721: x23+x31-y23_31 <=1 
C722: x23+x32-y23_32 <=1 
C723: x23+x33 <=1 
C724: x23+x34 <=1 
C725: x23+x35-y23_35 <=1 
C726: x23+x37-y23_37 <=1 
C727: x23+x40-y23_40 <=1 
C728: x23+x42-y23_42 <=1 
C729: x23+x43-y23_43 <=1 
C730: x23+x49 <=1 
C731: x23+x52-y23_52 <=1 
C732: x23+x53-y23_53 <=1 
C733: x23+x55-y23_55 <=1 
C734: x23+x56-y23_56 <=1 
C735: x23+x57 <=1 
C736: x23+x58 <=1 
C737: x23+x59 <=1 
C738: x23+x60-y23_60 <=1 
C739: x23+x61-y23_61 <=1 
C740: x23+x63-y23_63 <=1 
C741: x24+x25 <=1 
C742: x24+x26 <=1 
C743: x24+x27-y24_27 <=1 
C744: x24+x29 <=1 
C745: x24+x30-y24_30 <=1 
C746: x24+x31-y24_31 <=1 
C747: x24+x33-y24_33 <=1 
C748: x24+x34 <=1 
C749: x24+x35-y24_35 <=1 
C750: x24+x39-y24_39 <=1 
C751: x24+x43-y24_43 <=1 
C752: x24+x44-y24_44 <=1 
C753: x24+x45 <=1 
C754: x24+x46-y24_46 <=1 
C755: x24+x47-y24_47 <=1 
C756: x24+x49-y24_49 <=1 
C757: x24+x52-y24_52 <=1 
C758: x24+x56 <=1 
C759: x24+x58 <=1 
C760: x24+x59-y24_59 <=1 
C761: x24+x60 <=1 
C762: x24+x63-y24_63 <=1 
C763: x25+x26-y25_26 <=1 
C764: x25+x28 <=1 
C765: x25+x29 <=1 
C766: x25+x30 <=1 
C767: x25+x31 <=1 
C768: x25+x33-y25_33 <=1 
C769: x25+x35 <=1 
C770: x25+x36 <=1 
C771: x25+x38-y25_38 <=1 
C772: x25+x40-y25_40 <=1 
C773: x25+x44 <=1 
C774: x25+x48-y25_48 <=1 
C775: x25+x49 <=1 
C776: x25+x50 <=1 
C777: x25+x51-y25_51 <=1 
C778: x25+x52-y25_52 <=1 
C779: x25+x55 <=1 
C780: x25+x57 <=1 
C781: x25+x59-y25_59 <=1 
C782: x25+x63-y25_63 <=1 
C783: x26+x27-y26_27 <=1 
C784: x26+x28 <=1 
C785: x26+x29-y26_29 <=1 
C786: x26+x32 <=1 
C787: x26+x36 <=1 
C788: x26+x37-y26_37 <=1 
C789: x26+x38 <=1 
C790: x26+x39-y26_39 <=1 
C791: x26+x42-y26_42 <=1 
C792: x26+x43 <=1 
C793: x26+x44-y26_44 <=1 
C794: x26+x47-y26_47 <=1 
C795: x26+x49-y26_49 <=1 
C796: x26+x50-y26_50 <=1 
C797: x26+x51-y26_51 <=1 
C798: x26+x52-y26_52 <=1 
C799: x26+x54-y26_54 <=1 
C800: x26+x57-y26_57 <=1 
C801: x26+x58-y26_58 <=1 
C802: x26+x59 <=1 
C803: x26+x61 <=1 
C804: x26+x63 <=1 
C805: x27+x28-y27_28 <=1 
C806: x27+x29 <=1 
C807: x27+x30-y27_30 <=1 
C808: x27+x31 <=1 
C809: x27+x34 <=1 
C810: x27+x35 <=1 
C811: x27+x36 <=1 
C812: x27+x37 <=1 
C813: x27+x38-y27_38 <=1 
C814: x27+x46 <=1 
C815: x27+x47 <=1 
C816: x27+x48 <=1 
C817: x27+x50-y27_50 <=1 
C818: x27+x54 <=1 
C819: x27+x55 <=1 
C820: x27+x56-y27_56 <=1 
C821: x27+x59 <=1 
C822: x27+x63 <=1 
C823: x28+x29-y28_29 <=1 
C824: x28+x30 <=1 
C825: x28+x31 <=1 
C826: x28+x32-y28_32 <=1 
C827: x28+x33-y28_33 <=1 
C828: x28+x34 <=1 
C829: x28+x35 <=1 
C830: x28+x37 <=1 
C831: x28+x40 <=1 
C832: x28+x41-y28_41 <=1 
C833: x28+x43-y28_43 <=1 
C834: x28+x44 <=1 
C835: x28+x46-y28_46 <=1 
C836: x28+x48-y28_48 <=1 
C837: x28+x49 <=1 
C838: x28+x51-y28_51 <=1 
C839: x28+x55 <=1 
C840: x28+x56 <=1 
C841: x28+x58 <=1 
C842: x28+x61 <=1 
C843: x29+x32 <=1 
C844: x29+x33-y29_33 <=1 
C845: x29+x34-y29_34 <=1 
C846: x29+x36-y29_36 <=1 
C847: x29+x37 <=1 
C848: x29+x39-y29_39 <=1 
C849: x29+x40 <=1 
C850: x29+x42 <=1 
C851: x29+x43-y29_43 <=1 
C852: x29+x44-y29_44 <=1 
C853: x29+x45 <=1 
C854: x29+x46 <=1 
C855: x29+x47 <=1 
C856: x29+x49-y29_49 <=1 
C857: x29+x52 <=1 
C858: x29+x53-y29_53 <=1 
C859: x29+x54-y29_54 <=1 
C860: x29+x57-y29_57 <=1 
C861: x29+x59-y29_59 <=1 
C862: x30+x31-y30_31 <=1 
C863: x30+x32-y30_32 <=1 
C864: x30+x33 <=1 
C865: x30+x34-y30_34 <=1 
C866: x30+x35 <=1 
C867: x30+x38 <=1 
C868: x30+x41-y30_41 <=1 
C869: x30+x42-y30_42 <=1 
C870: x30+x44 <=1 
C871: x30+x46-y30_46 <=1 
C872: x30+x47 <=1 
C873: x30+x49 <=1 
C874: x30+x52-y30_52 <=1 
C875: x30+x53-y30_53 <=1 
C876: x30+x55-y30_55 <=1 
C877: x30+x56-y30_56 <=1 
C878: x30+x57-y30_57 <=1 
C879: x30+x58-y30_58 <=1 
C880: x30+x59 <=1 
C881: x30+x62 <=1 
C882: x31+x32 <=1 
C883: x31+x33 <=1 
C884: x31+x34 <=1 
C885: x31+x35 <=1 
C886: x31+x36-y31_36 <=1 
C887: x31+x37-y31_37 <=1 
C888: x31+x39 <=1 
C889: x31+x40-y31_40 <=1 
C890: x31+x43-y31_43 <=1 
C891: x31+x45-y31_45 <=1 
C892: x31+x46 <=1 
C893: x31+x47 <=1 
C894: x31+x49 <=1 
C895: x31+x50 <=1 
C896: x31+x51-y31_51 <=1 
C897: x31+x52-y31_52 <=1 
C898: x31+x55-y31_55 <=1 
C899: x31+x56-y31_56 <=1 
C900: x31+x58 <=1 
C901: x31+x59 <=1 
C902: x31+x61-y31_61 <=1 
C903: x31+x62-y31_62 <=1 
C904: x31+x63-y31_63 <=1 
C905: x32+x33 <=1 
C906: x32+x38-y32_38 <=1 
C907: x32+x40 <=1 
C908: x32+x41-y32_41 <=1 
C909: x32+x42-y32_42 <=1 
C910: x32+x44-y32_44 <=1 
C911: x32+x45 <=1 
C912: x32+x47-y32_47 <=1 
C913: x32+x49 <=1 
C914: x32+x50 <=1 
C915: x32+x52-y32_52 <=1 
C916: x32+x55-y32_55 <=1 
C917: x32+x56 <=1 
C918: x32+x57-y32_57 <=1 
C919: x32+x58-y32_58 <=1 
C920: x32+x59 <=1 
C921: x32+x61 <=1 
C922: x32+x62 <=1 
C923: x32+x63 <=1 
C924: x33+x34 <=1 
C925: x33+x36-y33_36 <=1 
C926: x33+x38-y33_38 <=1 
C927: x33+x39-y33_39 <=1 
C928: x33+x40 <=1 
C929: x33+x43-y33_43 <=1 
C930: x33+x44 <=1 
C931: x33+x45 <=1 
C932: x33+x46 <=1 
C933: x33+x48 <=1 
C934: x33+x49-y33_49 <=1 
C935: x33+x51 <=1 
C936: x33+x52-y33_52 <=1 
C937: x33+x53 <=1 
C938: x33+x55-y33_55 <=1 
C939: x33+x57 <=1 
C940: x33+x60-y33_60 <=1 
C941: x33+x61-y33_61 <=1 
C942: x33+x63 <=1 
C943: x34+x36 <=1 
C944: x34+x39-y34_39 <=1 
C945: x34+x40-y34_40 <=1 
C946: x34+x41-y34_41 <=1 
C947: x34+x42 <=1 
C948: x34+x43-y34_43 <=1 
C949: x34+x44 <=1 
C950: x34+x46 <=1 
C951: x34+x47 <=1 
C952: x34+x49 <=1 
C953: x34+x50-y34_50 <=1 
C954: x34+x51 <=1 
C955: x34+x52 <=1 
C956: x34+x53 <=1 
C957: x34+x54 <=1 
C958: x34+x55 <=1 
C959: x34+x59 <=1 
C960: x34+x60 <=1 
C961: x34+x61-y34_61 <=1 
C962: x34+x63-y34_63 <=1 
C963: x35+x36-y35_36 <=1 
C964: x35+x37 <=1 
C965: x35+x38-y35_38 <=1 
C966: x35+x39 <=1 
C967: x35+x40 <=1 
C968: x35+x41-y35_41 <=1 
C969: x35+x43-y35_43 <=1 
C970: x35+x44-y35_44 <=1 
C971: x35+x46-y35_46 <=1 
C972: x35+x47 <=1 
C973: x35+x48 <=1 
C974: x35+x49-y35_49 <=1 
C975: x35+x50-y35_50 <=1 
C976: x35+x51-y35_51 <=1 
C977: x35+x53 <=1 
C978: x35+x54-y35_54 <=1 
C979: x35+x57 <=1 
C980: x35+x59 <=1 
C981: x35+x60-y35_60 <=1 
C982: x35+x63-y35_63 <=1 
C983: x36+x37-y36_37 <=1 
C984: x36+x38-y36_38 <=1 
C985: x36+x40-y36_40 <=1 
C986: x36+x42-y36_42 <=1 
C987: x36+x43 <=1 
C988: x36+x44 <=1 
C989: x36+x45 <=1 
C990: x36+x46-y36_46 <=1 
C991: x36+x47-y36_47 <=1 
C992: x36+x48-y36_48 <=1 
C993: x36+x49-y36_49 <=1 
C994: x36+x50 <=1 
C995: x36+x52 <=1 
C996: x36+x53-y36_53 <=1 
C997: x36+x56-y36_56 <=1 
C998: x36+x57-y36_57 <=1 
C999: x36+x58-y36_58 <=1 
C1000: x36+x59 <=1 
C1001: x36+x63 <=1 
C1002: x37+x39-y37_39 <=1 
C1003: x37+x41 <=1 
C1004: x37+x42 <=1 
C1005: x37+x43 <=1 
C1006: x37+x44-y37_44 <=1 
C1007: x37+x45 <=1 
C1008: x37+x46 <=1 
C1009: x37+x47 <=1 
C1010: x37+x50 <=1 
C1011: x37+x51 <=1 
C1012: x37+x53-y37_53 <=1 
C1013: x37+x55 <=1 
C1014: x37+x62 <=1 
C1015: x38+x40 <=1 
C1016: x38+x41 <=1 
C1017: x38+x42 <=1 
C1018: x38+x43-y38_43 <=1 
C1019: x38+x45 <=1 
C1020: x38+x46 <=1 
C1021: x38+x47 <=1 
C1022: x38+x49 <=1 
C1023: x38+x52 <=1 
C1024: x38+x53-y38_53 <=1 
C1025: x38+x54 <=1 
C1026: x38+x56-y38_56 <=1 
C1027: x38+x58 <=1 
C1028: x38+x59 <=1 
C1029: x38+x60-y38_60 <=1 
C1030: x38+x62 <=1 
C1031: x39+x40 <=1 
C1032: x39+x41 <=1 
C1033: x39+x46-y39_46 <=1 
C1034: x39+x47-y39_47 <=1 
C1035: x39+x50-y39_50 <=1 
C1036: x39+x55 <=1 
C1037: x39+x56 <=1 
C1038: x39+x57-y39_57 <=1 
C1039: x39+x58 <=1 
C1040: x39+x59-y39_59 <=1 
C1041: x39+x61 <=1 
C1042: x40+x41-y40_41 <=1 
C1043: x40+x42-y40_42 <=1 
C1044: x40+x46 <=1 
C1045: x40+x47 <=1 
C1046: x40+x48-y40_48 <=1 
C1047: x40+x50-y40_50 <=1 
C1048: x40+x54-y40_54 <=1 
C1049: x40+x60-y40_60 <=1 
C1050: x40+x62 <=1 
C1051: x40+x63 <=1 
C1052: x41+x44-y41_44 <=1 
C1053: x41+x46 <=1 
C1054: x41+x47 <=1 
C1055: x41+x48 <=1 
C1056: x41+x52-y41_52 <=1 
C1057: x41+x53-y41_53 <=1 
C1058: x41+x54-y41_54 <=1 
C1059: x41+x56 <=1 
C1060: x41+x58 <=1 
C1061: x41+x60 <=1 
C1062: x41+x62 <=1 
C1063: x42+x43 <=1 
C1064: x42+x44 <=1 
C1065: x42+x46-y42_46 <=1 
C1066: x42+x48-y42_48 <=1 
C1067: x42+x51-y42_51 <=1 
C1068: x42+x52 <=1 
C1069: x42+x53-y42_53 <=1 
C1070: x42+x54 <=1 
C1071: x42+x55-y42_55 <=1 
C1072: x42+x56-y42_56 <=1 
C1073: x42+x57-y42_57 <=1 
C1074: x42+x59-y42_59 <=1 
C1075: x42+x60-y42_60 <=1 
C1076: x42+x61-y42_61 <=1 
C1077: x42+x62 <=1 
C1078: x43+x44-y43_44 <=1 
C1079: x43+x45-y43_45 <=1 
C1080: x43+x46 <=1 
C1081: x43+x47 <=1 
C1082: x43+x48-y43_48 <=1 
C1083: x43+x51 <=1 
C1084: x43+x53-y43_53 <=1 
C1085: x43+x54-y43_54 <=1 
C1086: x43+x58-y43_58 <=1 
C1087: x43+x60-y43_60 <=1 
C1088: x43+x62-y43_62 <=1 
C1089: x43+x63-y43_63 <=1 
C1090: x44+x45 <=1 
C1091: x44+x48 <=1 
C1092: x44+x49-y44_49 <=1 
C1093: x44+x50 <=1 
C1094: x44+x52 <=1 
C1095: x44+x54 <=1 
C1096: x44+x55 <=1 
C1097: x44+x56-y44_56 <=1 
C1098: x44+x58 <=1 
C1099: x44+x60 <=1 
C1100: x44+x61-y44_61 <=1 
C1101: x44+x62-y44_62 <=1 
C1102: x45+x48-y45_48 <=1 
C1103: x45+x49-y45_49 <=1 
C1104: x45+x51-y45_51 <=1 
C1105: x45+x54-y45_54 <=1 
C1106: x45+x55 <=1 
C1107: x45+x56-y45_56 <=1 
C1108: x45+x59-y45_59 <=1 
C1109: x45+x61 <=1 
C1110: x46+x47-y46_47 <=1 
C1111: x46+x49 <=1 
C1112: x46+x50-y46_50 <=1 
C1113: x46+x51 <=1 
C1114: x46+x52 <=1 
C1115: x46+x53 <=1 
C1116: x46+x54 <=1 
C1117: x46+x58 <=1 
C1118: x46+x59-y46_59 <=1 
C1119: x46+x61 <=1 
C1120: x47+x49-y47_49 <=1 
C1121: x47+x50-y47_50 <=1 
C1122: x47+x55 <=1 
C1123: x47+x56 <=1 
C1124: x47+x57 <=1 
C1125: x47+x59-y47_59 <=1 
C1126: x47+x63 <=1 
C1127: x48+x50-y48_50 <=1 
C1128: x48+x51 <=1 
C1129: x48+x55-y48_55 <=1 
C1130: x48+x57-y48_57 <=1 
C1131: x48+x59-y48_59 <=1 
C1132: x48+x61-y48_61 <=1 
C1133: x48+x62-y48_62 <=1 
C1134: x49+x50 <=1 
C1135: x49+x51-y49_51 <=1 
C1136: x49+x55 <=1 
C1137: x49+x57 <=1 
C1138: x49+x59 <=1 
C1139: x49+x60-y49_60 <=1 
C1140: x49+x61-y49_61 <=1 
C1141: x49+x62-y49_62 <=1 
C1142: x50+x52 <=1 
C1143: x50+x53-y50_53 <=1 
C1144: x50+x54-y50_54 <=1 
C1145: x50+x55 <=1 
C1146: x50+x57 <=1 
C1147: x50+x58 <=1 
C1148: x50+x61 <=1 
C1149: x50+x62 <=1 
C1150: x51+x52 <=1 
C1151: x51+x53-y51_53 <=1 
C1152: x51+x54-y51_54 <=1 
C1153: x51+x56 <=1 
C1154: x51+x57 <=1 
C1155: x51+x58-y51_58 <=1 
C1156: x51+x59 <=1 
C1157: x51+x60-y51_60 <=1 
C1158: x51+x62 <=1 
C1159: x51+x63 <=1 
C1160: x52+x54 <=1 
C1161: x52+x56-y52_56 <=1 
C1162: x52+x57-y52_57 <=1 
C1163: x52+x58 <=1 
C1164: x52+x59 <=1 
C1165: x52+x60-y52_60 <=1 
C1166: x52+x62 <=1 
C1167: x53+x54-y53_54 <=1 
C1168: x53+x55-y53_55 <=1 
C1169: x53+x59-y53_59 <=1 
C1170: x53+x62 <=1 
C1171: x54+x55-y54_55 <=1 
C1172: x54+x56 <=1 
C1173: x54+x57 <=1 
C1174: x54+x58-y54_58 <=1 
C1175: x54+x61 <=1 
C1176: x54+x63 <=1 
C1177: x55+x57 <=1 
C1178: x55+x63-y55_63 <=1 
C1179: x56+x57 <=1 
C1180: x56+x59-y56_59 <=1 
C1181: x56+x60 <=1 
C1182: x56+x61-y56_61 <=1 
C1183: x56+x62-y56_62 <=1 
C1184: x57+x58 <=1 
C1185: x57+x59 <=1 
C1186: x57+x60 <=1 
C1187: x57+x61-y57_61 <=1 
C1188: x57+x63 <=1 
C1189: x58+x59 <=1 
C1190: x58+x60-y58_60 <=1 
C1191: x58+x61 <=1 
C1192: x59+x60-y59_60 <=1 
C1193: x59+x61-y59_61 <=1 
C1194: x59+x62 <=1 
C1195: x60+x61-y60_61 <=1 
C1196: x61+x62 <=1 
C1197: x61+x63 <=1 

binary
x0
x1
x2
x3
x4
x5
x6
x7
x8
x9
x10
x11
x12
x13
x14
x15
x16
x17
x18
x19
x20
x21
x22
x23
x24
x25
x26
x27
x28
x29
x30
x31
x32
x33
x34
x35
x36
x37
x38
x39
x40
x41
x42
x43
x44
x45
x46
x47
x48
x49
x50
x51
x52
x53
x54
x55
x56
x57
x58
x59
x60
x61
x62
x63
