problem_generation/data/GISP/train/er_n=64_m=1197_p=0.60_SET2_setparam=100.00_alpha=0.50_295.sol
objective value:                                 1361
x0                                                  1 	(obj:100)
x1                                                  1 	(obj:100)
x4                                                  1 	(obj:100)
x16                                                 1 	(obj:100)
x23                                                 1 	(obj:100)
x24                                                 1 	(obj:100)
x30                                                 1 	(obj:100)
x40                                                 1 	(obj:100)
x43                                                 1 	(obj:100)
x48                                                 1 	(obj:100)
x52                                                 1 	(obj:100)
x53                                                 1 	(obj:100)
x55                                                 1 	(obj:100)
x61                                                 1 	(obj:100)
y0_23                                               1 	(obj:-1)
y16_55                                              1 	(obj:-1)
y23_53                                              1 	(obj:-1)
y1_43                                               1 	(obj:-1)
y1_52                                               1 	(obj:-1)
y4_53                                               1 	(obj:-1)
y43_53                                              1 	(obj:-1)
y30_55                                              1 	(obj:-1)
y23_43                                              1 	(obj:-1)
y23_52                                              1 	(obj:-1)
y4_48                                               1 	(obj:-1)
y23_61                                              1 	(obj:-1)
y24_30                                              1 	(obj:-1)
y4_24                                               1 	(obj:-1)
y0_4                                                1 	(obj:-1)
y1_4                                                1 	(obj:-1)
y40_48                                              1 	(obj:-1)
y48_61                                              1 	(obj:-1)
y43_48                                              1 	(obj:-1)
y1_55                                               1 	(obj:-1)
y24_43                                              1 	(obj:-1)
y24_52                                              1 	(obj:-1)
y23_55                                              1 	(obj:-1)
y16_43                                              1 	(obj:-1)
y16_52                                              1 	(obj:-1)
y16_61                                              1 	(obj:-1)
y30_53                                              1 	(obj:-1)
y4_55                                               1 	(obj:-1)
y1_40                                               1 	(obj:-1)
y0_53                                               1 	(obj:-1)
y4_23                                               1 	(obj:-1)
y53_55                                              1 	(obj:-1)
y16_24                                              1 	(obj:-1)
y30_52                                              1 	(obj:-1)
y23_40                                              1 	(obj:-1)
y1_30                                               1 	(obj:-1)
y0_43                                               1 	(obj:-1)
y1_16                                               1 	(obj:-1)
y48_55                                              1 	(obj:-1)
